(set-logic QF_S)
(declare-fun var0 () String)
(assert (RegexIn var0 (RegexConcat (RegexPlus (RegexStar (Str2Reg "000"))) (RegexConcat (RegexStar (RegexPlus (Str2Reg "11"))) (RegexConcat (RegexUnion (RegexStar (Str2Reg "22")) (RegexStar (Str2Reg "333"))) (RegexConcat (RegexPlus (RegexPlus (Str2Reg "444"))) (RegexConcat (RegexPlus (RegexStar (Str2Reg "555"))) (RegexConcat (RegexUnion (RegexUnion (Str2Reg "66") (Str2Reg "77")) (RegexUnion (Str2Reg "88") (Str2Reg "9"))) (RegexConcat (RegexStar (RegexUnion (Str2Reg "a") (Str2Reg "bbb"))) (RegexConcat (RegexPlus (RegexPlus (Str2Reg "ccc"))) (RegexConcat (RegexPlus (RegexStar (Str2Reg "ddd"))) (RegexConcat (RegexStar (RegexUnion (Str2Reg "ee") (Str2Reg "fff"))) (RegexConcat (RegexUnion (RegexStar (Str2Reg "ggg")) (RegexStar (Str2Reg "hhh"))) (RegexConcat (RegexPlus (RegexUnion (Str2Reg "iii") (Str2Reg "jj"))) (RegexConcat (RegexPlus (RegexStar (Str2Reg "kk"))) (RegexConcat (RegexPlus (RegexPlus (Str2Reg "ll"))) (RegexConcat (RegexUnion (RegexPlus (Str2Reg "mmm")) (RegexPlus (Str2Reg "nnn"))) (RegexConcat (RegexPlus (RegexPlus (Str2Reg "ooo"))) (RegexConcat (RegexStar (RegexUnion (Str2Reg "ppp") (Str2Reg "qqq"))) (RegexConcat (RegexPlus (RegexStar (Str2Reg "rr"))) (RegexConcat (RegexStar (RegexStar (Str2Reg "s"))) (RegexConcat (RegexStar (RegexStar (Str2Reg "ttt"))) (RegexConcat (RegexPlus (RegexStar (Str2Reg "u"))) (RegexConcat (RegexStar (RegexStar (Str2Reg "v"))) (RegexConcat (RegexStar (RegexUnion (Str2Reg "w") (Str2Reg "xx"))) (RegexConcat (RegexPlus (RegexPlus (Str2Reg "y"))) (RegexConcat (RegexStar (RegexPlus (Str2Reg "zz"))) (RegexConcat (RegexPlus (RegexPlus (Str2Reg "A"))) (RegexConcat (RegexUnion (RegexUnion (Str2Reg "BB") (Str2Reg "CCC")) (RegexUnion (Str2Reg "D") (Str2Reg "EEE"))) (RegexConcat (RegexUnion (RegexPlus (Str2Reg "F")) (RegexPlus (Str2Reg "G"))) (RegexConcat (RegexPlus (RegexStar (Str2Reg "H"))) (RegexConcat (RegexPlus (RegexPlus (Str2Reg "I"))) (RegexConcat (RegexUnion (RegexStar (Str2Reg "JJJ")) (RegexStar (Str2Reg "K"))) (RegexConcat (RegexUnion (RegexUnion (Str2Reg "L") (Str2Reg "MMM")) (RegexUnion (Str2Reg "NNN") (Str2Reg "O"))) (RegexConcat (RegexUnion (RegexPlus (Str2Reg "P")) (RegexPlus (Str2Reg "QQQ"))) (RegexConcat (RegexPlus (RegexUnion (Str2Reg "RR") (Str2Reg "SSS"))) (RegexConcat (RegexUnion (RegexStar (Str2Reg "T")) (RegexStar (Str2Reg "U"))) (RegexConcat (RegexStar (RegexStar (Str2Reg "V"))) (RegexConcat (RegexUnion (RegexPlus (Str2Reg "WW")) (RegexPlus (Str2Reg "XXX"))) (RegexConcat (RegexUnion (RegexStar (Str2Reg "YYY")) (RegexStar (Str2Reg "ZZZ"))) (RegexConcat (RegexStar (RegexStar (Str2Reg "!"))) (RegexConcat (RegexUnion (RegexUnion (Str2Reg "\"") (Str2Reg "##")) (RegexUnion (Str2Reg "$$") (Str2Reg "%%%"))) (RegexConcat (RegexPlus (RegexUnion (Str2Reg "&") (Str2Reg "''"))) (RegexConcat (RegexStar (RegexUnion (Str2Reg "(((") (Str2Reg "))"))) (RegexConcat (RegexPlus (RegexPlus (Str2Reg "***"))) (RegexConcat (RegexPlus (RegexPlus (Str2Reg "+++"))) (RegexConcat (RegexPlus (RegexPlus (Str2Reg ","))) (RegexConcat (RegexUnion (RegexUnion (Str2Reg "--") (Str2Reg "..")) (RegexUnion (Str2Reg "/") (Str2Reg ":::"))) (RegexConcat (RegexPlus (RegexStar (Str2Reg ";;"))) (RegexConcat (RegexPlus (RegexPlus (Str2Reg "<"))) (RegexConcat (RegexPlus (RegexStar (Str2Reg "=="))) (RegexConcat (RegexUnion (RegexPlus (Str2Reg ">>>")) (RegexPlus (Str2Reg "??"))) (RegexConcat (RegexPlus (RegexPlus (Str2Reg "@@"))) (RegexConcat (RegexUnion (RegexStar (Str2Reg "[[[")) (RegexStar (Str2Reg "\\"))) (RegexConcat (RegexStar (RegexPlus (Str2Reg "]]"))) (RegexConcat (RegexUnion (RegexUnion (Str2Reg "^^") (Str2Reg "__")) (RegexUnion (Str2Reg "``") (Str2Reg "{{"))) (RegexConcat (RegexStar (RegexPlus (Str2Reg "|"))) (RegexConcat (RegexPlus (RegexStar (Str2Reg "}}}"))) (RegexConcat (RegexStar (RegexStar (Str2Reg "~~"))) (RegexConcat (RegexPlus (RegexUnion (Str2Reg "0") (Str2Reg "11"))) (RegexConcat (RegexPlus (RegexStar (Str2Reg "2"))) (RegexConcat (RegexPlus (RegexStar (Str2Reg "333"))) (RegexConcat (RegexPlus (RegexPlus (Str2Reg "444"))) (RegexConcat (RegexStar (RegexPlus (Str2Reg "555"))) (RegexConcat (RegexUnion (RegexUnion (Str2Reg "66") (Str2Reg "777")) (RegexUnion (Str2Reg "8") (Str2Reg "999"))) (RegexConcat (RegexUnion (RegexStar (Str2Reg "aaa")) (RegexStar (Str2Reg "bb"))) (RegexConcat (RegexUnion (RegexPlus (Str2Reg "cc")) (RegexPlus (Str2Reg "dd"))) (RegexConcat (RegexUnion (RegexPlus (Str2Reg "e")) (RegexPlus (Str2Reg "f"))) (RegexConcat (RegexPlus (RegexStar (Str2Reg "ggg"))) (RegexConcat (RegexStar (RegexPlus (Str2Reg "hh"))) (RegexConcat (RegexStar (RegexStar (Str2Reg "iii"))) (RegexConcat (RegexStar (RegexUnion (Str2Reg "j") (Str2Reg "kk"))) (RegexConcat (RegexPlus (RegexStar (Str2Reg "lll"))) (RegexConcat (RegexPlus (RegexUnion (Str2Reg "mm") (Str2Reg "nn"))) (RegexConcat (RegexUnion (RegexUnion (Str2Reg "ooo") (Str2Reg "ppp")) (RegexUnion (Str2Reg "q") (Str2Reg "rr"))) (RegexConcat (RegexStar (RegexUnion (Str2Reg "ss") (Str2Reg "ttt"))) (RegexConcat (RegexUnion (RegexStar (Str2Reg "uuu")) (RegexStar (Str2Reg "v"))) (RegexConcat (RegexStar (RegexUnion (Str2Reg "www") (Str2Reg "xxx"))) (RegexConcat (RegexPlus (RegexPlus (Str2Reg "yy"))) (RegexConcat (RegexPlus (RegexPlus (Str2Reg "zz"))) (RegexConcat (RegexUnion (RegexUnion (Str2Reg "A") (Str2Reg "BB")) (RegexUnion (Str2Reg "CCC") (Str2Reg "DD"))) (RegexConcat (RegexStar (RegexUnion (Str2Reg "E") (Str2Reg "FF"))) (RegexConcat (RegexUnion (RegexPlus (Str2Reg "GGG")) (RegexPlus (Str2Reg "HHH"))) (RegexConcat (RegexUnion (RegexStar (Str2Reg "III")) (RegexStar (Str2Reg "J"))) (RegexConcat (RegexUnion (RegexUnion (Str2Reg "KKK") (Str2Reg "LL")) (RegexUnion (Str2Reg "MMM") (Str2Reg "NNN"))) (RegexConcat (RegexStar (RegexPlus (Str2Reg "O"))) (RegexConcat (RegexStar (RegexPlus (Str2Reg "PPP"))) (RegexConcat (RegexUnion (RegexUnion (Str2Reg "QQ") (Str2Reg "RR")) (RegexUnion (Str2Reg "SS") (Str2Reg "TTT"))) (RegexConcat (RegexStar (RegexStar (Str2Reg "U"))) (RegexConcat (RegexUnion (RegexUnion (Str2Reg "V") (Str2Reg "WW")) (RegexUnion (Str2Reg "XX") (Str2Reg "Y"))) (RegexConcat (RegexStar (RegexStar (Str2Reg "Z"))) (RegexConcat (RegexPlus (RegexPlus (Str2Reg "!!!"))) (RegexConcat (RegexUnion (RegexStar (Str2Reg "\"")) (RegexStar (Str2Reg "##"))) (RegexConcat (RegexStar (RegexStar (Str2Reg "$"))) (RegexConcat (RegexUnion (RegexPlus (Str2Reg "%%%")) (RegexPlus (Str2Reg "&&&"))) (RegexConcat (RegexStar (RegexStar (Str2Reg "''"))) (RegexConcat (RegexPlus (RegexStar (Str2Reg "(("))) (RegexConcat (RegexUnion (RegexStar (Str2Reg "))")) (RegexStar (Str2Reg "**"))) (RegexConcat (RegexStar (RegexUnion (Str2Reg "+") (Str2Reg ",,"))) (RegexConcat (RegexPlus (RegexUnion (Str2Reg "---") (Str2Reg ".."))) (RegexConcat (RegexStar (RegexStar (Str2Reg "///"))) (RegexConcat (RegexPlus (RegexStar (Str2Reg ":::"))) (RegexConcat (RegexStar (RegexStar (Str2Reg ";;;"))) (RegexConcat (RegexStar (RegexStar (Str2Reg "<<"))) (RegexConcat (RegexUnion (RegexStar (Str2Reg "===")) (RegexStar (Str2Reg ">>>"))) (RegexConcat (RegexUnion (RegexStar (Str2Reg "???")) (RegexStar (Str2Reg "@"))) (RegexConcat (RegexStar (RegexStar (Str2Reg "[[["))) (RegexConcat (RegexStar (RegexPlus (Str2Reg "\\\\"))) (RegexConcat (RegexUnion (RegexPlus (Str2Reg "]]]")) (RegexPlus (Str2Reg "^^^"))) (RegexConcat (RegexUnion (RegexPlus (Str2Reg "__")) (RegexPlus (Str2Reg "``"))) (RegexConcat (RegexPlus (RegexPlus (Str2Reg "{{{"))) (RegexConcat (RegexUnion (RegexUnion (Str2Reg "|||") (Str2Reg "}")) (RegexUnion (Str2Reg "~~~") (Str2Reg "00"))) (RegexConcat (RegexPlus (RegexPlus (Str2Reg "1"))) (RegexConcat (RegexUnion (RegexUnion (Str2Reg "2") (Str2Reg "33")) (RegexUnion (Str2Reg "44") (Str2Reg "555"))) (RegexConcat (RegexUnion (RegexPlus (Str2Reg "66")) (RegexPlus (Str2Reg "7"))) (RegexConcat (RegexPlus (RegexStar (Str2Reg "88"))) (RegexConcat (RegexUnion (RegexStar (Str2Reg "99")) (RegexStar (Str2Reg "a"))) (RegexConcat (RegexPlus (RegexUnion (Str2Reg "b") (Str2Reg "c"))) (RegexConcat (RegexStar (RegexPlus (Str2Reg "ddd"))) (RegexConcat (RegexUnion (RegexStar (Str2Reg "eee")) (RegexStar (Str2Reg "f"))) (RegexConcat (RegexPlus (RegexStar (Str2Reg "g"))) (RegexConcat (RegexPlus (RegexUnion (Str2Reg "h") (Str2Reg "i"))) (RegexConcat (RegexPlus (RegexPlus (Str2Reg "jjj"))) (RegexConcat (RegexStar (RegexStar (Str2Reg "k"))) (RegexConcat (RegexUnion (RegexPlus (Str2Reg "lll")) (RegexPlus (Str2Reg "mmm"))) (RegexConcat (RegexStar (RegexStar (Str2Reg "nnn"))) (RegexConcat (RegexStar (RegexStar (Str2Reg "ooo"))) (RegexConcat (RegexUnion (RegexUnion (Str2Reg "ppp") (Str2Reg "q")) (RegexUnion (Str2Reg "r") (Str2Reg "s"))) (RegexConcat (RegexPlus (RegexStar (Str2Reg "t"))) (RegexConcat (RegexUnion (RegexStar (Str2Reg "uuu")) (RegexStar (Str2Reg "vv"))) (RegexConcat (RegexStar (RegexPlus (Str2Reg "ww"))) (RegexConcat (RegexStar (RegexPlus (Str2Reg "xxx"))) (RegexConcat (RegexStar (RegexStar (Str2Reg "y"))) (RegexConcat (RegexPlus (RegexUnion (Str2Reg "z") (Str2Reg "AA"))) (RegexConcat (RegexUnion (RegexUnion (Str2Reg "BBB") (Str2Reg "CC")) (RegexUnion (Str2Reg "DD") (Str2Reg "E"))) (RegexConcat (RegexPlus (RegexPlus (Str2Reg "F"))) (RegexConcat (RegexUnion (RegexUnion (Str2Reg "GGG") (Str2Reg "HH")) (RegexUnion (Str2Reg "III") (Str2Reg "JJJ"))) (RegexConcat (RegexStar (RegexPlus (Str2Reg "K"))) (RegexConcat (RegexPlus (RegexUnion (Str2Reg "LLL") (Str2Reg "M"))) (RegexConcat (RegexUnion (RegexStar (Str2Reg "NNN")) (RegexStar (Str2Reg "O"))) (RegexConcat (RegexPlus (RegexUnion (Str2Reg "PP") (Str2Reg "QQ"))) (RegexConcat (RegexStar (RegexStar (Str2Reg "RRR"))) (RegexConcat (RegexStar (RegexStar (Str2Reg "SS"))) (RegexConcat (RegexStar (RegexPlus (Str2Reg "TT"))) (RegexConcat (RegexPlus (RegexStar (Str2Reg "UUU"))) (RegexConcat (RegexPlus (RegexStar (Str2Reg "VVV"))) (RegexConcat (RegexStar (RegexPlus (Str2Reg "WW"))) (RegexConcat (RegexUnion (RegexUnion (Str2Reg "XXX") (Str2Reg "YY")) (RegexUnion (Str2Reg "ZZZ") (Str2Reg "!!!"))) (RegexConcat (RegexStar (RegexUnion (Str2Reg "\"\"") (Str2Reg "#"))) (RegexConcat (RegexUnion (RegexUnion (Str2Reg "$$$") (Str2Reg "%%")) (RegexUnion (Str2Reg "&&&") (Str2Reg "'"))) (RegexConcat (RegexUnion (RegexUnion (Str2Reg "(") (Str2Reg ")")) (RegexUnion (Str2Reg "***") (Str2Reg "+"))) (RegexConcat (RegexStar (RegexStar (Str2Reg ",,"))) (RegexConcat (RegexStar (RegexUnion (Str2Reg "--") (Str2Reg "..."))) (RegexConcat (RegexStar (RegexPlus (Str2Reg "//"))) (RegexConcat (RegexUnion (RegexPlus (Str2Reg ":")) (RegexPlus (Str2Reg ";"))) (RegexConcat (RegexPlus (RegexPlus (Str2Reg "<<"))) (RegexConcat (RegexStar (RegexStar (Str2Reg "==="))) (RegexConcat (RegexPlus (RegexStar (Str2Reg ">"))) (RegexConcat (RegexPlus (RegexUnion (Str2Reg "?") (Str2Reg "@@@"))) (RegexConcat (RegexPlus (RegexUnion (Str2Reg "[[") (Str2Reg "\\"))) (RegexConcat (RegexPlus (RegexUnion (Str2Reg "]") (Str2Reg "^"))) (RegexConcat (RegexPlus (RegexPlus (Str2Reg "_"))) (RegexConcat (RegexStar (RegexUnion (Str2Reg "``") (Str2Reg "{{"))) (RegexStar (RegexStar (Str2Reg "|"))))))))))))))))))))))))))))))))))))))))))))))))))))))))))))))))))))))))))))))))))))))))))))))))))))))))))))))))))))))))))))))))))))))))))))))))))))))))))))))))))))))
(check-sat)